NAME: Random_90_5
ELLAPSED_TIME_(ms): 2840
TOUR_SIZE: 2058
TOUR_SECTION
0
68
47
23
83
61
45
89
57
12
41
14
63
54
11
78
10
36
15
64
84
67
48
46
72
20
76
88
38
22
9
13
43
17
34
31
82
24
3
86
27
59
62
53
32
25
49
42
26
39
1
35
58
81
18
19
85
79
40
37
6
69
50
28
52
87
66
55
65
56
8
73
30
71
77
33
51
5
2
16
29
7
70
60
75
80
21
4
44
74
0
EOF
